Mo4C3                                   
1.0
        3.0051329136         0.0000000000         0.0000000000
       -1.5025664568         2.6025214449         0.0000000000
        0.0000000000         0.0000000000        40.0000000000
   Mo    C
    4    3
Direct
     0.666666687         0.333333343         0.532711923
     0.333333343         0.666666687         0.467288047
     0.000000000         0.000000000         0.590869546
     0.000000000         0.000000000         0.409130454
     0.000000000         0.000000000         0.500000000
     0.333333343         0.666666687         0.565105855
     0.666666687         0.333333343         0.434894145
